c created by edge2cnf
p cnf 100 399
-1 -43 0
-1 -8 0
-1 -23 0
-1 -60 0
-1 -20 0
-1 -35 0
-2 -100 0
-2 -98 0
-2 -13 0
-2 -65 0
-2 -9 0
-2 -85 0
-2 -33 0
-2 -28 0
-2 -42 0
-2 -63 0
-2 -86 0
-3 -7 0
-3 -98 0
-3 -97 0
-3 -39 0
-3 -25 0
-3 -46 0
-3 -10 0
-3 -17 0
-3 -69 0
-3 -54 0
-3 -33 0
-4 -71 0
-4 -67 0
-4 -40 0
-4 -86 0
-4 -79 0
-4 -21 0
-4 -23 0
-4 -28 0
-4 -48 0
-4 -49 0
-4 -97 0
-5 -6 0
-5 -53 0
-5 -27 0
-5 -30 0
-5 -34 0
-5 -76 0
-5 -45 0
-5 -48 0
-5 -61 0
-5 -51 0
-6 -29 0
-6 -12 0
-6 -38 0
-6 -98 0
-6 -70 0
-6 -76 0
-6 -93 0
-7 -63 0
-7 -72 0
-7 -43 0
-7 -98 0
-7 -64 0
-7 -71 0
-7 -26 0
-7 -41 0
-7 -97 0
-7 -42 0
-8 -63 0
-8 -74 0
-8 -88 0
-8 -78 0
-8 -77 0
-8 -30 0
-8 -47 0
-8 -56 0
-9 -65 0
-9 -94 0
-9 -68 0
-9 -83 0
-9 -100 0
-10 -99 0
-10 -87 0
-10 -79 0
-10 -30 0
-10 -74 0
-11 -13 0
-11 -92 0
-11 -81 0
-11 -36 0
-11 -40 0
-11 -21 0
-11 -97 0
-12 -15 0
-12 -69 0
-12 -47 0
-12 -17 0
-12 -48 0
-12 -58 0
-12 -33 0
-12 -20 0
-12 -74 0
-12 -66 0
-13 -24 0
-13 -18 0
-13 -69 0
-13 -57 0
-13 -71 0
-14 -96 0
-14 -93 0
-14 -25 0
-14 -66 0
-14 -98 0
-14 -37 0
-14 -32 0
-14 -55 0
-15 -80 0
-15 -29 0
-15 -89 0
-15 -63 0
-15 -43 0
-15 -39 0
-15 -68 0
-15 -87 0
-15 -98 0
-15 -67 0
-15 -40 0
-16 -29 0
-16 -68 0
-16 -71 0
-16 -95 0
-16 -46 0
-17 -37 0
-17 -57 0
-17 -55 0
-17 -79 0
-17 -72 0
-17 -92 0
-18 -34 0
-18 -36 0
-18 -99 0
-18 -25 0
-18 -74 0
-18 -82 0
-18 -32 0
-18 -87 0
-19 -98 0
-19 -29 0
-19 -55 0
-19 -41 0
-19 -93 0
-19 -47 0
-19 -52 0
-19 -79 0
-19 -48 0
-20 -74 0
-20 -77 0
-20 -60 0
-20 -54 0
-20 -91 0
-20 -100 0
-20 -43 0
-21 -97 0
-21 -47 0
-21 -58 0
-21 -34 0
-21 -92 0
-21 -61 0
-21 -64 0
-22 -29 0
-22 -67 0
-22 -48 0
-22 -81 0
-22 -76 0
-22 -72 0
-22 -94 0
-22 -88 0
-22 -35 0
-23 -25 0
-23 -82 0
-23 -35 0
-23 -38 0
-23 -49 0
-24 -34 0
-24 -67 0
-25 -26 0
-25 -92 0
-25 -46 0
-25 -45 0
-25 -82 0
-25 -97 0
-25 -73 0
-25 -77 0
-25 -53 0
-26 -67 0
-26 -95 0
-26 -92 0
-26 -39 0
-27 -72 0
-27 -47 0
-27 -88 0
-27 -63 0
-27 -43 0
-27 -64 0
-27 -56 0
-27 -100 0
-28 -30 0
-28 -82 0
-28 -45 0
-28 -87 0
-28 -69 0
-28 -39 0
-28 -53 0
-28 -52 0
-28 -100 0
-28 -72 0
-28 -54 0
-29 -46 0
-29 -47 0
-29 -59 0
-29 -49 0
-30 -33 0
-30 -31 0
-30 -62 0
-30 -64 0
-31 -68 0
-31 -72 0
-31 -59 0
-31 -77 0
-31 -86 0
-32 -56 0
-32 -68 0
-32 -89 0
-32 -40 0
-32 -37 0
-32 -64 0
-33 -89 0
-33 -47 0
-33 -84 0
-33 -98 0
-33 -67 0
-33 -65 0
-34 -88 0
-34 -93 0
-34 -91 0
-34 -66 0
-34 -62 0
-34 -80 0
-35 -95 0
-35 -88 0
-35 -76 0
-37 -39 0
-37 -48 0
-38 -39 0
-38 -45 0
-38 -65 0
-38 -75 0
-38 -44 0
-39 -57 0
-39 -74 0
-40 -57 0
-40 -82 0
-40 -100 0
-40 -87 0
-40 -74 0
-41 -62 0
-41 -57 0
-41 -77 0
-41 -97 0
-42 -44 0
-42 -43 0
-42 -46 0
-42 -51 0
-42 -80 0
-42 -85 0
-42 -90 0
-42 -68 0
-42 -81 0
-43 -85 0
-44 -63 0
-45 -53 0
-45 -83 0
-46 -78 0
-46 -77 0
-47 -56 0
-47 -100 0
-47 -99 0
-47 -78 0
-48 -90 0
-48 -82 0
-49 -52 0
-49 -73 0
-49 -82 0
-49 -95 0
-49 -67 0
-50 -51 0
-50 -70 0
-51 -77 0
-51 -76 0
-51 -56 0
-51 -61 0
-51 -70 0
-52 -94 0
-53 -68 0
-54 -96 0
-54 -61 0
-54 -65 0
-54 -78 0
-54 -68 0
-54 -71 0
-55 -57 0
-55 -71 0
-55 -87 0
-55 -100 0
-56 -83 0
-56 -67 0
-57 -60 0
-57 -97 0
-58 -91 0
-58 -86 0
-58 -65 0
-58 -64 0
-59 -98 0
-59 -86 0
-59 -83 0
-59 -73 0
-60 -61 0
-60 -100 0
-60 -65 0
-60 -66 0
-61 -73 0
-61 -72 0
-61 -84 0
-62 -77 0
-62 -71 0
-62 -88 0
-62 -70 0
-62 -69 0
-63 -64 0
-63 -75 0
-64 -86 0
-64 -100 0
-65 -67 0
-65 -78 0
-65 -96 0
-65 -88 0
-66 -97 0
-66 -91 0
-66 -90 0
-66 -74 0
-67 -92 0
-67 -86 0
-67 -81 0
-67 -75 0
-67 -77 0
-68 -69 0
-68 -89 0
-68 -95 0
-69 -80 0
-69 -87 0
-69 -75 0
-70 -97 0
-70 -99 0
-71 -74 0
-71 -97 0
-71 -87 0
-72 -96 0
-72 -89 0
-72 -85 0
-72 -98 0
-72 -81 0
-73 -75 0
-73 -99 0
-73 -97 0
-73 -95 0
-74 -77 0
-75 -79 0
-75 -80 0
-76 -93 0
-77 -90 0
-77 -94 0
-77 -93 0
-79 -91 0
-79 -92 0
-80 -84 0
-82 -85 0
-82 -99 0
-82 -100 0
-84 -99 0
-85 -88 0
-85 -92 0
-86 -92 0
-88 -92 0
-88 -94 0
-90 -94 0
-91 -99 0
-94 -96 0
-94 -97 0
-94 -100 0
-95 -97 0
-97 -100 0
